%mem=190MW
# b3lyp/6-31g(d,p) scrf=(solvent=water) geom=connectivity formcheck pop=esp

Title

-12 1
 C                  4.17900400   -3.45647700    0.38894000
 C                  3.69491600   -3.85481000   -0.86673500
 C                  4.25148800   -3.30882800   -2.04720000
 C                  2.77104100   -4.73757600   -3.34454100
 C                  3.94557800   -3.96842500   -3.26877300
 C                  4.51288300   -3.89373400    2.74419700
 C                  2.55530400   -4.89040500    1.50797200
 C                  3.77066800   -4.14060000    1.55789700
 C                  1.93634200   -5.11941700    0.25158500
 C                  2.56665400   -4.69860500   -0.93931000
 C                  0.58759300   -5.25230200   -2.27755400
 C                  1.98012500   -4.96447500   -2.20052600
 C                 -0.13072200   -5.11955300   -3.48015600
 C                  0.52844000   -5.51963100    2.65960100
 C                  1.82838200   -5.20377200    2.67862600
 C                 -0.19591100   -5.58661400    1.45371900
 C                  0.59711800   -5.84497400    0.17529100
 C                 -1.50105000   -4.98579700   -1.03526900
 C                 -0.14571000   -5.39158700   -1.07478300
 C                 -2.16810500   -4.63316000   -2.24210400
 C                 -1.49264600   -4.83542700   -3.46239900
 C                 -2.36784700   -5.23459400    2.57501600
 C                 -1.57002000   -5.24858300    1.41231300
 C                 -3.34743600   -4.05036700    0.25615100
 C                 -2.15910700   -4.82120500    0.20246600
 C                 -3.87653300   -3.49857700   -0.92183200
 C                 -3.40360400   -3.93141500   -2.17789500
 C                 -5.09168700   -2.51935000   -3.24305600
 C                 -4.14064000   -3.55024200   -3.31822200
 C                 -3.57869500   -4.53214400    2.61431500
 C                 -4.70235700   -2.52474000    1.59689400
 C                 -3.92912500   -3.72305000    1.50368100
 C                 -5.09035100   -1.85740300    0.41028400
 C                 -4.78265300   -2.41876600   -0.84568700
 C                 -5.36449600   -0.36172300   -2.00635400
 C                 -5.19722100   -1.77844900   -2.03702200
 C                 -5.07394600    0.41842800   -3.14398900
 C                 -5.26946200   -0.58747000    2.91600800
 C                 -4.88622300   -1.86345500    2.82727500
 C                 -5.57035700    0.19250000    1.78178500
 C                 -5.85485100   -0.53198100    0.46829600
 C                 -5.05747100    1.64358600   -0.63584400
 C                 -5.46626200    0.29350400   -0.75147600
 C                 -4.68196800    2.36707700   -1.80119600
 C                 -4.75405200    1.71017300   -3.04659600
 C                 -5.33073800    2.34409100    3.01661200
 C                 -5.34740400    1.59464600    1.80951700
 C                 -4.06475100    3.37843600    0.75414000
 C                 -4.89235700    2.23360100    0.63456400
 C                 -3.52030500    3.97500600   -0.39516100
 C                 -4.02574000    3.62559200   -1.66587100
 C                 -2.51953600    5.23750300   -2.66367400
 C                 -3.68526200    4.46525700   -2.75546500
 C                 -4.43484100    3.41739700    3.13419600
 C                 -2.48133200    4.60673300    2.14956200
 C                 -3.67196300    3.83690200    2.02911100
 C                 -1.78449900    5.00228000    0.97434000
 C                 -2.38220400    4.81304200   -0.28860200
 C                 -0.41061700    5.67737100   -1.45705600
 C                 -1.76908600    5.28099000   -1.47084000
 C                  0.36307800    5.63552900   -2.63248700
 C                 -0.52600400    5.19392300    3.47415000
 C                 -1.86950000    4.83884800    3.39823100
 C                  0.23424100    5.36590800    2.30273800
 C                 -0.45422200    5.47524000    1.07106600
 C                  1.68653600    5.28131800   -0.16987300
 C                  0.32076700    5.95987700   -0.14760200
 C                  2.36076700    5.06794300   -1.39896300
 C                  1.67142500    5.35735100   -2.59872700
 C                  2.39286200    4.94493600    3.45654100
 C                  1.63935800    5.13687100    2.28169500
 C                  3.44133500    4.07995800    1.02036100
 C                  2.28442600    4.88740600    1.04539200
 C                  3.98972000    3.68818200   -0.21171500
 C                  3.60160500    4.35792400   -1.39732500
 C                  5.13605700    2.95313500   -2.63769700
 C                  4.39532100    4.13991200   -2.55156300
 C                  3.59346000    4.21630300    3.42898300
 C                  4.67598800    2.32241900    2.16185000
 C                  3.96438500    3.55942600    2.22348800
 C                  5.03737400    1.78470500    0.89257600
 C                  4.81453100    2.53841600   -0.27884200
 C                  5.56854600    0.70444700   -1.71671500
 C                  5.21243200    2.06351400   -1.54726500
 C                  5.42586600    0.07589200   -2.96873800
 C                  5.20722200    0.22262300    3.20248700
 C                  4.83803600    1.50332300    3.30132000
 C                  5.43156400   -0.38007200    1.94996600
 C                  5.49580300    0.44899100    0.80431300
 C                  5.25392300   -1.53899900   -0.66628600
 C                  5.92340000   -0.17413100   -0.52073700
 C                  4.94956800   -2.06252600   -1.95004600
 C                  5.14253000   -1.22773400   -3.07333900
 C                  5.20133800   -2.67516400    2.86216400
 C                  5.27233700   -1.78197400    1.77574100
 C                  4.96076400   -2.28809800    0.49237200
 C                  0.52631100    7.46033600   -0.01687300
 O                  1.20268900    7.93029500    0.93745900
 O                 -0.04514000    8.34337400   -0.92840600
 C                 -4.58201800    4.65038700   -3.92340500
 O                 -4.15178100    5.16919400   -4.98793000
 O                 -5.93950500    4.37140600   -3.81099800
 C                 -5.99679300   -2.28018100   -4.39427500
 O                 -7.07290000   -1.64458800   -4.23417600
 O                 -5.72786400   -2.84691200   -5.63493100
 C                  4.48295700    4.27317100    4.61389000
 O                  5.72773500    4.13278000    4.47791900
 O                  3.97761200    4.62827400    5.85942500
 C                  4.69460300   -4.92420400    3.79529900
 O                  5.10708900   -4.60593000    4.94244200
 O                  4.54533200   -6.27081900    3.48268200
 C                  0.86117300   -7.33718100    0.05691600
 O                  1.59095300   -7.78359000   -0.86900400
 O                  0.28601500   -8.23906500    0.94738800
 C                 -4.50171500   -4.77399100    3.75048100
 O                 -5.74485100   -4.63711700    3.59734600
 O                 -4.02368700   -5.28544300    4.95168500
 C                 -6.29026000    2.07442800    4.11805700
 O                 -6.12038200    2.58302800    5.25816400
 O                 -7.44843800    1.34523300    3.87243800
 C                 -7.34764300   -0.77897000    0.40591400
 O                 -7.81733400   -1.94850600    0.36624400
 O                 -8.22437400    0.30045100    0.40478600
 C                  4.88854600   -3.99430200   -4.41333100
 O                  4.49198500   -4.31563900   -5.56527200
 O                  6.24881300   -3.80228500   -4.19843600
 C                  7.43006400   -0.37317700   -0.49235700
 O                  7.95622200   -1.13809800    0.36033700
 O                  8.25786800    0.29632600   -1.38889600
 C                  4.58372500    5.17899000   -3.59349700
 O                  5.04624500    4.87704100   -4.72590900
 O                  4.37857200    6.51922000   -3.28505700
 H                 -3.98881000   -4.04506300   -4.26531600
 H                 -1.95140200   -4.62920200   -4.41661600
 H                  0.35687700   -5.09059500   -4.44237100
 H                  2.48736800   -5.15891600   -4.29780900
 H                  4.88660100   -1.55989800   -4.06537100
 H                  5.35451800    0.64927100   -3.88147500
 H                  5.67974000    2.74402500   -3.54867900
 H                  2.12382100    5.17953400   -3.55992600
 H                 -0.09407300    5.63839500   -3.61084400
 H                 -2.21808400    5.82396200   -3.51996500
 H                 -4.94396300   -0.02628700   -4.11816700
 H                 -4.40449900    2.17792700   -3.95328900
 H                 -4.35338000    3.92182800    4.08510700
 H                 -2.35584200    4.60275300    4.33168300
 H                 -0.07705800    5.18439800    4.45552700
 H                  2.05632100    5.35863700    4.39585800
 H                  4.53190800    1.82716700    4.28210500
 H                  5.18295200   -0.35781500    4.11314500
 H                  5.68156100   -2.43134100    3.79976400
 H                  2.23750200   -5.01542800    3.65710900
 H                 -2.07073900   -5.79905100    3.44705800
 H                 -4.53491300   -2.30017200    3.74836900
 H                 -5.14829600   -0.13748300    3.88952700
 H                  0.03378600   -5.53783200    3.61916900

 1 2 1.5 8 1.5 96 1.5
 2 3 1.5 10 1.5
 3 5 1.5 92 1.5
 4 5 1.5 12 1.5 136 1.0
 5 124 1.0
 6 8 1.5 94 1.5 109 1.0
 7 8 1.5 9 1.5 15 1.5
 8
 9 10 1.5 17 1.0
 10 12 1.5
 11 12 1.5 13 1.5 19 1.5
 12
 13 21 1.5 135 1.0
 14 15 2.0 16 1.5 156 1.0
 15 152 1.0
 16 17 1.0 23 1.5
 17 19 1.0 112 1.0
 18 19 1.5 20 1.5 25 1.5
 19
 20 21 1.5 27 1.5
 21 134 1.0
 22 23 1.5 30 1.5 153 1.0
 23 25 1.5
 24 25 1.5 26 1.5 32 1.5
 25
 26 27 1.5 34 1.5
 27 29 1.5
 28 29 1.5 36 1.5 103 1.0
 29 133 1.0
 30 32 1.5 115 1.0
 31 32 1.5 33 1.5 39 1.5
 32
 33 34 1.5 41 1.0
 34 36 1.5
 35 36 1.5 37 1.5 43 1.5
 36
 37 45 2.0 143 1.0
 38 39 2.0 40 1.5 155 1.0
 39 154 1.0
 40 41 1.0 47 1.5
 41 43 1.0 121 1.0
 42 43 1.5 44 1.5 49 1.5
 43
 44 45 1.5 51 1.5
 45 144 1.0
 46 47 1.5 54 1.5 118 1.0
 47 49 1.5
 48 49 1.5 50 1.5 56 1.5
 49
 50 51 1.5 58 1.5
 51 53 1.5
 52 53 1.5 60 1.5 142 1.0
 53 100 1.0
 54 56 1.5 145 1.0
 55 56 1.5 57 1.5 63 1.5
 56
 57 58 1.5 65 1.5
 58 60 1.5
 59 60 1.5 61 1.5 67 1.0
 60
 61 69 2.0 141 1.0
 62 63 1.5 64 1.5 147 1.0
 63 146 1.0
 64 65 1.5 71 1.5
 65 67 1.0
 66 67 1.0 68 1.5 73 1.5
 67 97 1.0
 68 69 1.5 75 1.5
 69 140 1.0
 70 71 1.5 78 1.5 148 1.0
 71 73 1.5
 72 73 1.5 74 1.5 80 1.5
 73
 74 75 1.5 82 1.5
 75 77 1.5
 76 77 1.5 84 1.5 139 1.0
 77 130 1.0
 78 80 1.5 106 1.0
 79 80 1.5 81 1.5 87 1.5
 80
 81 82 1.5 89 1.5
 82 84 1.5
 83 84 1.5 85 1.5 91 1.0
 84
 85 93 2.0 138 1.0
 86 87 2.0 88 1.5 150 1.0
 87 149 1.0
 88 89 1.5 95 1.5
 89 91 1.0
 90 91 1.0 92 1.5 96 1.5
 91 127 1.0
 92 93 1.5
 93 137 1.0
 94 95 1.5 151 1.0
 95 96 1.5
 96
 97 98 2.0 99 1.0
 98
 99
 100 101 2.0 102 1.0
 101
 102
 103 104 2.0 105 1.0
 104
 105
 106 107 2.0 108 1.0
 107
 108
 109 110 2.0 111 1.0
 110
 111
 112 113 2.0 114 1.0
 113
 114
 115 116 2.0 117 1.0
 116
 117
 118 119 2.0 120 1.0
 119
 120
 121 122 2.0 123 1.0
 122
 123
 124 125 2.0 126 1.0
 125
 126
 127 128 2.0 129 1.0
 128
 129
 130 131 2.0 132 1.0
 131
 132
 133
 134
 135
 136
 137
 138
 139
 140
 141
 142
 143
 144
 145
 146
 147
 148
 149
 150
 151
 152
 153
 154
 155
 156

