%chk=C:\Users\kordzadeh\Desktop\coooo.chk
%mem=160MW
# b3lyp/6-31g(d,p) scrf=(solvent=water) geom=connectivity formcheck
pop=full

Title

-6 1
 C                  4.67329200    1.52312300    0.74185400
 C                  4.85598200    0.76195700   -0.43403900
 C                  4.80650500    1.39692900   -1.70436400
 C                  4.87231700   -0.80468500   -2.75493800
 C                  4.93384000    0.58364200   -2.84958400
 C                  4.63789400    1.72348600    3.15603700
 C                  4.88635700   -0.49944000    2.09708500
 C                  4.82883100    0.91837200    2.01473000
 C                  4.66570900   -1.25442300    0.92268000
 C                  4.80157300   -0.65103400   -0.34328300
 C                  4.00996100   -2.70723600   -1.41024600
 C                  4.64121600   -1.43099200   -1.51505400
 C                  3.57264200   -3.42649100   -2.53830100
 C                  4.40963300   -2.49718800    3.41640300
 C                  4.93296200   -1.19641000    3.32072200
 C                  3.70903500   -3.02605600    2.29993000
 C                  4.05910200   -2.52513900    1.02474500
 C                  2.46571100   -4.03064300   -0.03736300
 C                  3.57027400   -3.14909100   -0.13852500
 C                  1.84072000   -4.52392600   -1.21499900
 C                  2.49580100   -4.30463300   -2.44533000
 C                  1.78012900   -3.85934600    3.61830900
 C                  2.49128900   -3.76550100    2.40386800
 C                  0.42732300   -4.40650200    1.23383100
 C                  1.82288700   -4.16376300    1.21391500
 C                 -0.25044800   -4.62613100    0.01904200
 C                  0.47662700   -4.94564900   -1.15120100
 C                 -1.60619500   -4.96904700   -2.40048800
 C                 -0.26917300   -5.38511400   -2.27710000
 C                  0.40665100   -4.08497000    3.62852400
 C                 -1.69027800   -3.83689100    2.32131000
 C                 -0.31136800   -4.18970000    2.42247500
 C                 -2.27841800   -3.73716200    1.03628400
 C                 -1.61639700   -4.28204000   -0.08358400
 C                 -3.32796400   -3.37525800   -1.56974100
 C                 -2.23333100   -4.25826400   -1.35731200
 C                 -3.84090900   -3.08580700   -2.85206300
 C                 -3.51553000   -2.49978900    3.22133600
 C                 -2.42095600   -3.33805900    3.41762100
 C                 -3.95603500   -2.17035100    1.92340000
 C                 -3.40140900   -2.89784000    0.83488200
 C                 -4.40805800   -1.35059700   -0.74317200
 C                 -3.79183400   -2.59235100   -0.48599100
 C                 -4.51560400   -0.88505300   -2.07318600
 C                 -4.49628600   -1.86569800   -3.10042400
 C                 -5.20642100   -0.11025000    2.65202200
 C                 -4.69946500   -0.97862900    1.65064700
 C                 -4.61350400    0.91147500    0.10933900
 C                 -4.66400100   -0.48010100    0.32852000
 C                 -4.26465200    1.38794200   -1.17244500
 C                 -4.33858000    0.51836600   -2.29586300
 C                 -3.33301400    2.27825200   -3.65796600
 C                 -3.95699700    1.03744300   -3.55044200
 C                 -5.10673300    1.27838900    2.44741300
 C                 -3.97986400    3.04647700    1.10949200
 C                 -4.63115800    1.78779200    1.22075900
 C                 -3.32705400    3.36911800   -0.10389600
 C                 -3.60262200    2.63591300   -1.27856700
 C                 -1.93306800    3.95642900   -2.49036400
 C                 -3.01207700    3.02451200   -2.50792200
 C                 -1.17907000    4.27317900   -3.63819300
 C                 -2.70820300    4.81879100    2.21511000
 C                 -3.77459700    3.90252100    2.21120900
 C                 -1.76952200    4.77171200    1.15057100
 C                 -2.22105000    4.24617000   -0.08242300
 C                 -0.07042400    4.73545200   -1.10932300
 C                 -1.43516900    4.39149300   -1.23939900
 C                  0.76985500    4.70909900   -2.25154500
 C                  0.15764600    4.65369000   -3.52001700
 C                  0.24599600    4.95849100    2.59271900
 C                 -0.35915000    4.94410100    1.31812100
 C                  1.85814400    4.48669800    0.35524700
 C                  0.48954100    4.81370700    0.18535500
 C                  2.63138200    4.15912900   -0.77781200
 C                  2.15716100    4.45750000   -2.07554700
 C                  4.18443700    3.45861200   -3.00203800
 C                  3.04439400    4.26623300   -3.15469900
 C                  1.59282900    4.64058300    2.75543000
 C                  3.51764100    3.40451400    1.79682500
 C                  2.37772900    4.25152600    1.65394000
 C                  4.05111000    2.78825300    0.64008500
 C                  3.73966000    3.29792800   -0.63242900
 C                  4.34937100    2.74858400   -1.78415200
 C                  3.98073400    2.95042900    3.04896800
 C                 -2.65646800    5.85716600    3.27157000
 O                 -2.04504600    6.93943500    3.06541200
 O                 -3.39428200    5.71270100    4.44097300
 C                 -5.91876500   -0.62016500    3.84759800
 O                 -6.13046100    0.12893000    4.83820200
 O                 -6.47769300   -1.89326000    3.83320900
 C                  4.67712400   -3.29664500    4.63526300
 O                  4.61974400   -4.55461000    4.59222700
 O                  5.12616400   -2.68215700    5.79866800
 C                  5.20869000    3.44268600   -4.07313400
 O                  6.39604100    3.11421100   -3.80862900
 O                  4.90848000    3.91777400   -5.34465200
 C                  0.28313200   -6.33748800   -3.26978700
 O                  1.26195500   -7.07070900   -2.96641000
 O                 -0.35377600   -6.53530600   -4.48959500
 C                 -5.22410500   -1.68851100   -4.37911700
 O                 -6.18509000   -0.87680500   -4.45222600
 O                 -4.95529300   -2.51358600   -5.46525800
 H                  2.09527100   -4.64984100   -3.38301400
 H                  3.94612800   -3.22765400   -3.52989100
 H                  4.86938300   -1.34893600   -3.68551700
 H                  4.90498700    0.98543400   -3.84826300
 H                  2.84363200    4.70849500   -4.11908300
 H                 -2.13196700   -5.18253800   -3.31855600
 H                 -3.69748900   -3.76909200   -3.67469300
 H                 -3.97290700    0.44561400   -4.44910600
 H                 -2.97344700    2.54889000   -4.63782400
 H                 -1.56052400    4.12251300   -4.63623300
 H                  0.72279200    4.73878300   -4.43551500
 H                 -4.40743200    3.84438300    3.08335600
 H                 -5.35689800    1.93854400    3.26362800
 H                 -0.32618400    5.03956900    3.50120700
 H                  1.94803900    4.56165600    3.77055300
 H                  3.74265500    3.46030200    3.96937700
 H                  4.83114800    1.35917600    4.15355500
 H                  5.34928400   -0.73197400    4.20277400
 H                 -3.88536200   -2.00219300    4.10106400
 H                 -2.08948400   -3.45893700    4.43600900
 H                 -0.08089400   -4.03544400    4.58873900
 H                  2.21386400   -3.58651600    4.56513200

 1 2 1.5 8 1.5 81 1.5
 2 3 1.5 10 1.5
 3 5 1.5 83 1.5
 4 5 1.5 12 1.5 105 1.0
 5 106 1.0
 6 8 1.5 84 1.5 119 1.0
 7 8 1.5 9 1.5 15 1.5
 8
 9 10 1.5 17 1.5
 10 12 1.5
 11 12 1.5 13 1.5 19 1.5
 12
 13 21 1.5 104 1.0
 14 15 1.5 16 1.5 91 1.0
 15 120 1.0
 16 17 1.5 23 1.5
 17 19 1.5
 18 19 1.5 20 1.5 25 1.5
 19
 20 21 1.5 27 1.5
 21 103 1.0
 22 23 1.5 30 1.5 124 1.0
 23 25 1.5
 24 25 1.5 26 1.5 32 1.5
 25
 26 27 1.5 34 1.5
 27 29 1.5
 28 29 1.5 36 1.5 108 1.0
 29 97 1.0
 30 32 1.5 123 1.0
 31 32 1.5 33 1.5 39 1.5
 32
 33 34 1.5 41 1.5
 34 36 1.5
 35 36 1.5 37 1.5 43 1.5
 36
 37 45 1.5 109 1.0
 38 39 1.5 40 1.5 121 1.0
 39 122 1.0
 40 41 1.5 47 1.5
 41 43 1.5
 42 43 1.5 44 1.5 49 1.5
 43
 44 45 1.5 51 1.5
 45 100 1.0
 46 47 1.5 54 1.5 88 1.0
 47 49 1.5
 48 49 1.5 50 1.5 56 1.5
 49
 50 51 1.5 58 1.5
 51 53 1.5
 52 53 1.5 60 1.5 111 1.0
 53 110 1.0
 54 56 1.5 115 1.0
 55 56 1.5 57 1.5 63 1.5
 56
 57 58 1.5 65 1.5
 58 60 1.5
 59 60 1.5 61 1.5 67 1.5
 60
 61 69 1.5 112 1.0
 62 63 1.5 64 1.5 85 1.0
 63 114 1.0
 64 65 1.5 71 1.5
 65 67 1.5
 66 67 1.5 68 1.5 73 1.5
 67
 68 69 1.5 75 1.5
 69 113 1.0
 70 71 1.5 78 1.5 116 1.0
 71 73 1.5
 72 73 1.5 74 1.5 80 1.5
 73
 74 75 1.5 82 1.5
 75 77 1.5
 76 77 1.5 83 1.5 94 1.0
 77 107 1.0
 78 80 1.5 117 1.0
 79 80 1.5 81 1.5 84 1.5
 80
 81 82 1.5
 82 83 1.5
 83
 84 118 1.0
 85 86 2.0 87 1.0
 86
 87
 88 89 2.0 90 1.0
 89
 90
 91 92 2.0 93 1.0
 92
 93
 94 95 2.0 96 1.0
 95
 96
 97 98 2.0 99 1.0
 98
 99
 100 101 2.0 102 1.0
 101
 102
 103
 104
 105
 106
 107
 108
 109
 110
 111
 112
 113
 114
 115
 116
 117
 118
 119
 120
 121
 122
 123
 124

