%mem=160MW
%chk=C:\Users\kordzadeh\Desktop\side.chk
# b3lyp/6-31g(d,p) scrf=(solvent=water) geom=connectivity pop=full
formcheck

Title

-10 1
 C                 -4.41049373    1.65680903   -0.61219985
 C                 -4.66503263    0.99643104    0.60084637
 C                 -4.49384957    1.68729398    1.83105700
 C                 -4.75828201   -0.42573031    3.01280620
 C                 -4.65353068    0.95954503    3.02837227
 C                 -4.40275992    1.71147342   -3.02692918
 C                 -5.09422373   -0.34783331   -1.84327960
 C                 -4.69251490    1.01601923   -1.83627568
 C                 -5.16884425   -1.14907928   -0.62328647
 C                 -4.89460413   -0.40207128    0.59411326
 C                 -4.12072260   -2.42400232    1.70231479
 C                 -4.69990621   -1.12716351    1.79683860
 C                 -3.68166242   -3.13703808    2.83158719
 C                 -4.66927370   -2.35782537   -3.11841320
 C                 -5.20677340   -1.06544144   -3.05190727
 C                 -3.91121670   -2.81550442   -2.00641661
 C                 -4.23667369   -2.27341146   -0.73394098
 C                 -2.64639472   -3.81179668    0.31659641
 C                 -3.70720360   -2.87960244    0.42802178
 C                 -2.04635805   -4.35145944    1.48375974
 C                 -2.64869319   -4.06372290    2.72755910
 C                 -2.04724394   -3.72923279   -3.34946991
 C                 -2.71715227   -3.58560025   -2.12136033
 C                 -0.69707647   -4.44653904   -1.00571074
 C                 -2.04949697   -4.01771586   -0.94564361
 C                 -0.02271506   -4.75923611    0.18199918
 C                 -0.75044035   -4.94156689    1.38709669
 C                  1.33570805   -5.25339786    2.57682372
 C                 -0.04535256   -5.48185089    2.49677432
 C                 -0.71923865   -4.13183841   -3.39969426
 C                  1.44212693   -4.36837162   -2.20094837
 C                  0.01542819   -4.37653376   -2.22056621
 C                  2.21258913   -4.54133972   -0.96973215
 C                  1.38971735   -4.72741739    0.21766259
 C                  3.10511165   -3.79127458    1.64655618
 C                  2.01335366   -4.68013263    1.48725001
 C                  3.64596331   -3.46358440    2.90519772
 C                  3.24697026   -3.09814096   -3.17650849
 C                  2.16867766   -3.95920697   -3.33746930
 C                  3.65078353   -2.68832824   -1.88929521
 C                  3.11023352   -3.39557945   -0.77422793
 C                  4.10754924   -1.76360704    0.74010838
 C                  3.50134877   -3.01714768    0.53271153
 C                  4.28497646   -1.27556385    2.05256459
 C                  4.29472089   -2.23210385    3.10581212
 C                  4.95828046   -0.68729411   -2.69101023
 C                  4.38522620   -1.48107741   -1.66468563
 C                  4.49467257    0.45855624   -0.17072834
 C                  4.37958990   -0.93669704   -0.36009799
 C                  4.25232249    0.99747918    1.10310797
 C                  4.22934993    0.14004294    2.24204154
 C                  3.46801642    2.02160589    3.59224530
 C                  3.91564588    0.70978038    3.49270476
 C                  5.00714701    0.70556070   -2.51551105
 C                  4.28852475    2.67353403   -1.17893816
 C                  4.63274081    1.29974687   -1.29021839
 C                  3.89349402    3.28105387    0.09094146
 C                  3.86805197    2.35622064    1.21880220
 C                  2.28773297    3.80530851    2.37081476
 C                  3.29233648    2.80259317    2.43836066
 C                  1.58911838    4.26901981    3.50137816
 C                  3.07394619    4.40300301   -2.36862059
 C                  4.12470781    3.47656507   -2.32787742
 C                  2.12538723    4.38195557   -1.31046811
 C                  2.57481533    3.90253607   -0.05158493
 C                  0.45912385    4.60073658    0.95799266
 C                  1.79002879    4.15203304    1.09445203
 C                 -0.33949783    4.78953015    2.11279266
 C                  0.29429160    4.77089545    3.37248354
 C                  0.12569471    4.69368112   -2.74445079
 C                  0.73227189    4.65507411   -1.47425152
 C                 -1.56854364    4.88670072   -0.48129378
 C                 -0.12007943    4.68487128   -0.33243489
 C                 -2.26087611    4.38120483    0.69679569
 C                 -1.74603953    4.69550574    1.97635016
 C                 -3.76257670    3.79230536    2.98720828
 C                 -2.60868947    4.58160783    3.08078608
 C                 -1.24588955    4.52488455   -2.88153332
 C                 -3.14006474    3.39187413   -1.79263318
 C                 -2.04017899    4.29960776   -1.73804789
 C                 -3.66772537    2.86864080   -0.59639844
 C                 -3.32201334    3.45002877    0.62841758
 C                 -3.93912636    2.99980758    1.82174516
 C                 -3.63565911    2.87146258   -3.00594394
 C                  3.04506991    5.40925434   -3.45645454
 O                  2.46665750    6.51455009   -3.27961520
 O                  3.78885589    5.21689905   -4.61512769
 C                  5.64362900   -1.28261480   -3.86322387
 O                  5.86721883   -0.59476300   -4.89487705
 O                  6.17718297   -2.56397345   -3.77866769
 C                 -4.95569647   -3.20485136   -4.30008121
 O                 -4.86498204   -4.45873715   -4.21675091
 O                 -5.47382936   -2.64299232   -5.46127495
 C                 -4.78077046    3.87361718    4.06185443
 O                 -5.97980441    3.56981188    3.82201590
 O                 -4.45913501    4.41969464    5.29922881
 C                 -0.69455457   -6.33513825    3.52010299
 O                 -1.77158238   -6.93255603    3.25423102
 O                 -0.05185581   -6.60884365    4.72209467
 C                  5.06041530   -2.02930563    4.35893335
 O                  6.04435398   -1.24246532    4.37860993
 O                  4.80229872   -2.81233361    5.47833075
 H                 -2.24249597   -4.41286349    3.66131932
 H                 -4.03201732   -2.90958871    3.82610153
 H                 -4.72730390   -0.92342871    3.96902457
 H                 -4.50792787    1.40583110    3.99813293
 H                 -2.37139231    5.05862827    4.02039714
 H                  1.85474914   -5.47831223    3.49701427
 H                  3.53714640   -4.13697721    3.74242379
 H                  3.82832746    0.11862467    4.38872947
 H                  3.10153470    2.33482182    4.55784554
 H                  1.98822339    4.16442719    4.49955177
 H                 -0.23557284    5.00011865    4.28450042
 H                  4.72545441    3.33204353   -3.21256953
 H                  5.34964056    1.30942264   -3.34117510
 H                  0.69655065    4.63999214   -3.65648399
 H                 -1.60186025    4.36182896   -3.88535483
 H                 -3.40140632    3.30892286   -3.96285471
 H                 -4.66415544    1.32372401   -3.99956309
 H                 -5.60793044   -0.60618852   -3.94430524
 H                  3.60078489   -2.62566634   -4.07589670
 H                  1.80832194   -4.09456406   -4.34434284
 H                 -0.27060339   -4.14755742   -4.37879541
 H                 -2.47218535   -3.39127407   -4.28039410
 C                 -1.87640230    6.37774327   -0.55536072
 O                 -0.96369227    7.24513913   -0.47296262
 O                 -3.19329583    6.80190201   -0.70352004
 C                 -6.60134807   -1.65891513   -0.50269784
 O                 -6.86320772   -2.89313630   -0.49445607
 O                 -7.64876071   -0.74933693   -0.39689811
 C                  3.02764607   -5.81883065   -1.13552268
 O                  4.28874541   -5.80636159   -1.09684410
 O                  2.37410983   -7.03187990   -1.32852440
 C                  4.94313722    4.33834520    0.41856348
 O                  4.64261240    5.56041969    0.50916242
 O                  6.26695525    3.95639970    0.61147415

 1 2 1.5 8 1.5 81 1.5
 2 3 1.5 10 1.5
 3 5 1.5 83 1.5
 4 5 1.5 12 1.5 105 1.0
 5 106 1.0
 6 8 1.5 84 1.5 119 1.0
 7 8 1.5 9 1.5 15 1.5
 8
 9 10 1.5 17 1.5 128 1.0
 10 12 1.5
 11 12 1.5 13 1.5 19 1.5
 12
 13 21 1.5 104 1.0
 14 15 1.5 16 1.5 91 1.0
 15 120 1.0
 16 17 1.5 23 1.5
 17 19 1.5
 18 19 1.5 20 1.5 25 1.5
 19
 20 21 1.5 27 1.5
 21 103 1.0
 22 23 1.5 30 1.5 124 1.0
 23 25 1.5
 24 25 1.5 26 1.5 32 1.5
 25
 26 27 1.5 34 1.5
 27 29 1.5
 28 29 1.5 36 1.5 108 1.0
 29 97 1.0
 30 32 1.5 123 1.0
 31 32 1.5 33 1.5 39 1.5
 32
 33 34 1.5 41 1.5 131 1.0
 34 36 1.5
 35 36 1.5 37 1.5 43 1.5
 36
 37 45 1.5 109 1.0
 38 39 1.5 40 1.5 121 1.0
 39 122 1.0
 40 41 1.5 47 1.5
 41 43 1.5
 42 43 1.5 44 1.5 49 1.5
 43
 44 45 1.5 51 1.5
 45 100 1.0
 46 47 1.5 54 1.5 88 1.0
 47 49 1.5
 48 49 1.5 50 1.5 56 1.5
 49
 50 51 1.5 58 1.5
 51 53 1.5
 52 53 1.5 60 1.5 111 1.0
 53 110 1.0
 54 56 1.5 115 1.0
 55 56 1.5 57 1.5 63 1.5
 56
 57 58 1.5 65 1.5 134 1.0
 58 60 1.5
 59 60 1.5 61 1.5 67 1.5
 60
 61 69 1.5 112 1.0
 62 63 1.5 64 1.5 85 1.0
 63 114 1.0
 64 65 1.5 71 1.5
 65 67 1.5
 66 67 1.5 68 1.5 73 1.5
 67
 68 69 1.5 75 1.5
 69 113 1.0
 70 71 1.5 78 1.5 116 1.0
 71 73 1.5
 72 73 1.5 74 1.5 80 1.5 125 1.0
 73
 74 75 1.5 82 1.5
 75 77 1.5
 76 77 1.5 83 1.5 94 1.0
 77 107 1.0
 78 80 1.5 117 1.0
 79 80 1.5 81 1.5 84 1.5
 80
 81 82 1.5
 82 83 1.5
 83
 84 118 1.0
 85 86 2.0 87 1.0
 86
 87
 88 89 2.0 90 1.0
 89
 90
 91 92 2.0 93 1.0
 92
 93
 94 95 2.0 96 1.0
 95
 96
 97 98 2.0 99 1.0
 98
 99
 100 101 2.0 102 1.0
 101
 102
 103
 104
 105
 106
 107
 108
 109
 110
 111
 112
 113
 114
 115
 116
 117
 118
 119
 120
 121
 122
 123
 124
 125 126 2.0 127 1.0
 126
 127
 128 129 2.0 130 1.0
 129
 130
 131 132 2.0 133 1.0
 132
 133
 134 135 2.0 136 1.0
 135
 136

