 Entering Link 1 = C:\G09W\l1.exe PID=      5220.
  
 Copyright (c) 1988,1990,1992,1993,1995,1998,2003,2009, Gaussian, Inc.
                  All Rights Reserved.
  
 This is part of the Gaussian(R) 09 program.  It is based on
 the Gaussian(R) 03 system (copyright 2003, Gaussian, Inc.),
 the Gaussian(R) 98 system (copyright 1998, Gaussian, Inc.),
 the Gaussian(R) 94 system (copyright 1995, Gaussian, Inc.),
 the Gaussian 92(TM) system (copyright 1992, Gaussian, Inc.),
 the Gaussian 90(TM) system (copyright 1990, Gaussian, Inc.),
 the Gaussian 88(TM) system (copyright 1988, Gaussian, Inc.),
 the Gaussian 86(TM) system (copyright 1986, Carnegie Mellon
 University), and the Gaussian 82(TM) system (copyright 1983,
 Carnegie Mellon University). Gaussian is a federally registered
 trademark of Gaussian, Inc.
  
 This software contains proprietary and confidential information,
 including trade secrets, belonging to Gaussian, Inc.
  
 This software is provided under written license and may be
 used, copied, transmitted, or stored only in accord with that
 written license.
  
 The following legend is applicable only to US Government
 contracts under FAR:
  
                    RESTRICTED RIGHTS LEGEND
  
 Use, reproduction and disclosure by the US Government is
 subject to restrictions as set forth in subparagraphs (a)
 and (c) of the Commercial Computer Software - Restricted
 Rights clause in FAR 52.227-19.
  
 Gaussian, Inc.
 340 Quinnipiac St., Bldg. 40, Wallingford CT 06492
  
  
 ---------------------------------------------------------------
 Warning -- This program may not be used in any manner that
 competes with the business of Gaussian, Inc. or will provide
 assistance to any competitor of Gaussian, Inc.  The licensee
 of this program is prohibited from giving any competitor of
 Gaussian, Inc. access to this program.  By using this program,
 the user acknowledges that Gaussian, Inc. is engaged in the
 business of creating and licensing software in the field of
 computational chemistry and represents and warrants to the
 licensee that it is not a competitor of Gaussian, Inc. and that
 it will not use this program in any manner prohibited above.
 ---------------------------------------------------------------
  

 Cite this work as:
 Gaussian 09, Revision A.02,
 M. J. Frisch, G. W. Trucks, H. B. Schlegel, G. E. Scuseria, 
 M. A. Robb, J. R. Cheeseman, G. Scalmani, V. Barone, B. Mennucci, 
 G. A. Petersson, H. Nakatsuji, M. Caricato, X. Li, H. P. Hratchian, 
 A. F. Izmaylov, J. Bloino, G. Zheng, J. L. Sonnenberg, M. Hada, 
 M. Ehara, K. Toyota, R. Fukuda, J. Hasegawa, M. Ishida, T. Nakajima, 
 Y. Honda, O. Kitao, H. Nakai, T. Vreven, J. A. Montgomery, Jr., 
 J. E. Peralta, F. Ogliaro, M. Bearpark, J. J. Heyd, E. Brothers, 
 K. N. Kudin, V. N. Staroverov, R. Kobayashi, J. Normand, 
 K. Raghavachari, A. Rendell, J. C. Burant, S. S. Iyengar, J. Tomasi, 
 M. Cossi, N. Rega, J. M. Millam, M. Klene, J. E. Knox, J. B. Cross, 
 V. Bakken, C. Adamo, J. Jaramillo, R. Gomperts, R. E. Stratmann, 
 O. Yazyev, A. J. Austin, R. Cammi, C. Pomelli, J. W. Ochterski, 
 R. L. Martin, K. Morokuma, V. G. Zakrzewski, G. A. Voth, 
 P. Salvador, J. J. Dannenberg, S. Dapprich, A. D. Daniels, 
 O. Farkas, J. B. Foresman, J. V. Ortiz, J. Cioslowski, 
 and D. J. Fox, Gaussian, Inc., Wallingford CT, 2009.
 
 ******************************************
 Gaussian 09:  IA32W-G09RevA.02 11-Jun-2009
                23-Nov-2018 
 ******************************************
 %nprocshared=1
 Will use up to    1 processors via shared memory.
 %mem=6MW
 %chk=C:\Users\azadeh\Documents\faradars\gaussian\methan.chk
 -----------------------------------------------------------
 # b3lyp/6-31++g(d,p) geom=connectivity scrf=(solvent=water)
 -----------------------------------------------------------
 1/38=1,57=2/1;
 2/12=2,17=6,18=5,40=1/2;
 3/5=1,6=6,7=1111,11=2,16=1,25=1,30=1,70=2201,72=1,74=-5/1,2,3;
 4//1;
 5/5=2,38=5,53=1/2;
 6/7=2,8=2,9=2,10=2,28=1/1;
 99/5=1,9=1/99;
 -------------------
 Title Card Required
 -------------------
 Symbolic Z-matrix:
 Charge =  0 Multiplicity = 1
 C                     6.55251   1.11872   0. 
 H                     6.90917   0.10991   0. 
 H                     6.90918   1.62312   0.87365 
 H                     6.90918   1.62312  -0.87365 
 H                     5.48251   1.11873   0. 
 
                          Input orientation:                          
 ---------------------------------------------------------------------
 Center     Atomic      Atomic             Coordinates (Angstroms)
 Number     Number       Type             X           Y           Z
 ---------------------------------------------------------------------
      1          6           0        6.552512    1.118721    0.000000
      2          1           0        6.909166    0.109911    0.000000
      3          1           0        6.909184    1.623120    0.873652
      4          1           0        6.909184    1.623120   -0.873652
      5          1           0        5.482512    1.118735    0.000000
 ---------------------------------------------------------------------
                    Distance matrix (angstroms):
                    1          2          3          4          5
     1  C    0.000000
     2  H    1.070000   0.000000
     3  H    1.070000   1.747302   0.000000
     4  H    1.070000   1.747302   1.747303   0.000000
     5  H    1.070000   1.747303   1.747303   1.747303   0.000000
 Stoichiometry    CH4
 Framework group  T[O(C),4C3(H)]
 Deg. of freedom     1
 Full point group                 T       NOp  12
 Largest Abelian subgroup         D2      NOp   4
 Largest concise Abelian subgroup D2      NOp   4
                         Standard orientation:                         
 ---------------------------------------------------------------------
 Center     Atomic      Atomic             Coordinates (Angstroms)
 Number     Number       Type             X           Y           Z
 ---------------------------------------------------------------------
      1          6           0        0.000000    0.000000    0.000000
      2          1           0        0.617765    0.617765    0.617765
      3          1           0       -0.617765   -0.617765    0.617765
      4          1           0       -0.617765    0.617765   -0.617765
      5          1           0        0.617765   -0.617765   -0.617765
 ---------------------------------------------------------------------
 Rotational constants (GHZ):    164.2463791    164.2463791    164.2463791
 Standard basis: 6-31++G(d,p) (6D, 7F)
 There are    13 symmetry adapted basis functions of A   symmetry.
 There are    10 symmetry adapted basis functions of B1  symmetry.
 There are    10 symmetry adapted basis functions of B2  symmetry.
 There are    10 symmetry adapted basis functions of B3  symmetry.
 Integral buffers will be    262144 words long.
 Raffenetti 2 integral format.
 Two-electron integral symmetry is turned on.
    43 basis functions,    64 primitive gaussians,    43 cartesian basis functions
     5 alpha electrons        5 beta electrons
       nuclear repulsion energy        13.6865185780 Hartrees.
 NAtoms=    5 NActive=    5 NUniq=    2 SFac= 3.00D+00 NAtFMM=   80 NAOKFM=F Big=F
 ------------------------------------------------------------------------------
 Polarizable Continuum Model (PCM)
 =================================
 Model                : PCM.
 Atomic radii         : UFF (Universal Force Field).
 Polarization charges : Total charges.
 Charge compensation  : None.
 Solution method      : Matrix inversion.
 Cavity type          : Scaled VdW (van der Waals Surface) (Alpha=1.100).
 Cavity algorithm     : GePol (No added spheres)
                        Default sphere list used, NSphG=    5.
                        Lebedev-Laikov grids with approx.  5.0 points / Ang**2.
                        Smoothing algorithm: Karplus/York (Gamma=1.0000).
                        Polarization charges: spherical gaussians, with
                                              point-specific exponents (IZeta= 3).
                        Self-potential: point-specific (ISelfS= 7).
                        Self-field    : sphere-specific E.n sum rule (ISelfD= 2).
 Solvent              : Water, Eps=  78.355300 Eps(inf)=   1.777849
 ------------------------------------------------------------------------------
 Spheres list:
 ISph  on   Nord    Re0     Alpha      Xe            Ye            Ze
    1   C      1    1.926   1.100      0.000000      0.000000      0.000000
    2   H      2    1.443   1.100      0.617765      0.617765      0.617765
    3   H      3    1.443   1.100     -0.617765     -0.617765      0.617765
    4   H      4    1.443   1.100     -0.617765      0.617765     -0.617765
    5   H      5    1.443   1.100      0.617765     -0.617765     -0.617765
 ------------------------------------------------------------------------------
 One-electron integrals computed using PRISM.
 NBasis=    43 RedAO= T  NBF=    13    10    10    10
 NBsUse=    43 1.00D-06 NBFU=    13    10    10    10
 Harris functional with IExCor=  402 diagonalized for initial guess.
 ExpMin= 3.60D-02 ExpMax= 3.05D+03 ExpMxC= 4.57D+02 IAcc=3 IRadAn=         0 AccDes= 0.00D+00
 HarFok:  IExCor=  402 AccDes= 0.00D+00 IRadAn=         0 IDoV= 1
 ScaDFX=  1.000000  1.000000  1.000000  1.000000
 FoFCou: FMM=F IPFlag=           0 FMFlag=      100000 FMFlg1=           0
         NFxFlg=           0 DoJE=T BraDBF=F KetDBF=T FulRan=T
         Omega=  0.000000  0.000000  1.000000  0.000000  0.000000 ICntrl=     500 IOpCl=  0
         NMat0=    1 NMatS0=    1 NMatT0=    0 NMatD0=    1 NMtDS0=    0 NMtDT0=    0
         I1Cent=           4 NGrid=           0.
 Petite list used in FoFCou.
 Initial guess orbital symmetries:
       Occupied  (A) (A) (T) (T) (T)
       Virtual   (A) (T) (T) (T) (T) (T) (T) (A) (T) (T) (T) (A)
                 (T) (T) (T) (T) (T) (T) (A) (A) (E) (E) (T) (T)
                 (T) (T) (T) (T) (T) (T) (T) (E) (E) (A) (T) (T)
                 (T) (A)
 The electronic state of the initial guess is 1-A.
 Requested convergence on RMS density matrix=1.00D-08 within 128 cycles.
 Requested convergence on MAX density matrix=1.00D-06.
 Requested convergence on             energy=1.00D-06.
 No special actions if energy rises.
 Keep R1 ints in memory in canonical form, NReq=3653223.
 Error on total polarization charges =  0.00891
 SCF Done:  E(RB3LYP) =  -40.5249652010     A.U. after    7 cycles
             Convg  =    0.9244D-09             -V/T =  2.0084

 **********************************************************************

            Population analysis using the SCF density.

 **********************************************************************

 Orbital symmetries:
       Occupied  (A) (A) (T) (T) (T)
       Virtual   (A) (T) (T) (T) (T) (T) (T) (A) (T) (T) (T) (A)
                 (T) (T) (T) (T) (T) (T) (A) (A) (E) (E) (T) (T)
                 (T) (T) (T) (T) (T) (T) (T) (E) (E) (A) (T) (T)
                 (T) (A)
 The electronic state is 1-A.
 Alpha  occ. eigenvalues --  -10.16150  -0.70195  -0.39650  -0.39650  -0.39650
 Alpha virt. eigenvalues --   -0.00275   0.04280   0.04280   0.04280   0.10324
 Alpha virt. eigenvalues --    0.10324   0.10324   0.13898   0.22425   0.22425
 Alpha virt. eigenvalues --    0.22425   0.36119   0.68882   0.68882   0.68882
 Alpha virt. eigenvalues --    0.93278   0.93278   0.93278   1.13157   1.18005
 Alpha virt. eigenvalues --    1.35606   1.35606   2.05308   2.05308   2.05308
 Alpha virt. eigenvalues --    2.13038   2.13038   2.13038   2.66525   2.66525
 Alpha virt. eigenvalues --    2.66525   2.95854   2.95854   3.25937   3.47695
 Alpha virt. eigenvalues --    3.47695   3.47695   4.44022
          Condensed to atoms (all electrons):
              1          2          3          4          5
     1  C    5.064503   0.394689   0.394689   0.394689   0.394689
     2  H    0.394689   0.508285  -0.021263  -0.021263  -0.021263
     3  H    0.394689  -0.021263   0.508285  -0.021263  -0.021263
     4  H    0.394689  -0.021263  -0.021263   0.508285  -0.021263
     5  H    0.394689  -0.021263  -0.021263  -0.021263   0.508285
 Mulliken atomic charges:
              1
     1  C   -0.643260
     2  H    0.160815
     3  H    0.160815
     4  H    0.160815
     5  H    0.160815
 Sum of Mulliken atomic charges =   0.00000
 Mulliken charges with hydrogens summed into heavy atoms:
              1
     1  C    0.000000
 Sum of Mulliken charges with hydrogens summed into heavy atoms =   0.00000
 Electronic spatial extent (au):  <R**2>=             35.1442
 Charge=              0.0000 electrons
 Dipole moment (field-independent basis, Debye):
    X=              0.0000    Y=              0.0000    Z=              0.0000  Tot=              0.0000
 Quadrupole moment (field-independent basis, Debye-Ang):
   XX=             -8.4245   YY=             -8.4245   ZZ=             -8.4245
   XY=              0.0000   XZ=              0.0000   YZ=              0.0000
 Traceless Quadrupole moment (field-independent basis, Debye-Ang):
   XX=              0.0000   YY=              0.0000   ZZ=              0.0000
   XY=              0.0000   XZ=              0.0000   YZ=              0.0000
 Octapole moment (field-independent basis, Debye-Ang**2):
  XXX=              0.0000  YYY=              0.0000  ZZZ=              0.0000  XYY=              0.0000
  XXY=              0.0000  XXZ=              0.0000  XZZ=              0.0000  YZZ=              0.0000
  YYZ=              0.0000  XYZ=              0.6675
 Hexadecapole moment (field-independent basis, Debye-Ang**3):
 XXXX=            -16.8579 YYYY=            -16.8579 ZZZZ=            -16.8579 XXXY=              0.0000
 XXXZ=              0.0000 YYYX=              0.0000 YYYZ=              0.0000 ZZZX=              0.0000
 ZZZY=              0.0000 XXYY=             -5.1813 XXZZ=             -5.1813 YYZZ=             -5.1813
 XXYZ=              0.0000 YYXZ=              0.0000 ZZXY=              0.0000
 N-N= 1.368651857799D+01 E-N=-1.204638716140D+02  KE= 4.018866284238D+01
 Symmetry A    KE= 3.433931728964D+01
 Symmetry B1   KE= 1.949781850914D+00
 Symmetry B2   KE= 1.949781850914D+00
 Symmetry B3   KE= 1.949781850914D+00
 1|1|UNPC-AZADEH-PC|SP|RB3LYP|6-31++G(d,p)|C1H4|AZADEH|23-Nov-2018|0||#
  b3lyp/6-31++g(d,p) geom=connectivity scrf=(solvent=water)||Title Card
  Required||0,1|C,0,6.55251154,1.11872144,0.|H,0,6.90916596,0.10991144,
 0.|H,0,6.90918438,1.62311963,0.8736515|H,0,6.90918438,1.62311963,-0.87
 36515|H,0,5.48251154,1.11873463,0.||Version=IA32W-G09RevA.02|State=1-A
 |HF=-40.5249652|RMSD=9.244e-010|Dipole=0.,0.,0.|Quadrupole=0.,0.,0.,0.
 ,0.,0.|PG=T [O(C1),4C3(H1)]||@


 There ain't no surer way to find out whether you
 like people or hate them than to travel with them.
                                     -- Mark Twain
 Job cpu time:  0 days  0 hours  0 minutes 28.0 seconds.
 File lengths (MBytes):  RWF=      9 Int=      0 D2E=      0 Chk=      1 Scr=      1
 Normal termination of Gaussian 09 at Fri Nov 23 15:47:42 2018.
